language ESSENCE' 1.0
$ 
$ Oleg German, Evgeny Lakshtanov: "Minesweeper" without a computer
$ http://arxiv.org/abs/0806.3480, page 4
letting r be 5
letting c be 6
letting game be [
    [-1,1,-1,1,-1,1],
    [2,-1,2,-1,1,-1],
    [-1,3,-1,2,-1,1],
    [1,-1,3,-1,2,-1],
    [-1,1,-1,2,-1,1]
  ]

